60
693
10
45
5
6
50
44
83
59
70
80
76
0 4
0 9
0 10
0 12
0 14
0 24
0 26
0 28
0 29
0 31
0 32
0 34
0 36
0 37
0 38
0 39
0 40
0 43
0 47
0 48
0 52
0 53
0 56
1 3
1 4
1 5
1 8
1 9
1 16
1 18
1 20
1 21
1 22
1 25
1 26
1 35
1 37
1 39
1 45
1 47
1 48
1 51
1 56
1 59
2 4
2 6
2 10
2 11
2 13
2 14
2 17
2 18
2 19
2 23
2 24
2 26
2 27
2 34
2 35
2 36
2 37
2 41
2 42
2 44
2 46
2 48
2 50
2 51
2 54
2 55
2 56
2 57
2 58
3 4
3 6
3 7
3 10
3 11
3 15
3 17
3 26
3 28
3 31
3 33
3 36
3 39
3 40
3 41
3 43
3 44
3 50
3 51
3 52
3 53
3 55
3 56
4 5
4 8
4 9
4 10
4 14
4 18
4 23
4 24
4 27
4 29
4 30
4 31
4 33
4 34
4 36
4 38
4 39
4 40
4 43
4 49
4 51
4 54
4 56
5 6
5 12
5 13
5 14
5 15
5 16
5 19
5 20
5 27
5 29
5 30
5 35
5 36
5 38
5 43
5 48
5 49
5 50
5 54
5 55
5 59
6 9
6 12
6 13
6 16
6 21
6 22
6 23
6 32
6 35
6 37
6 38
6 42
6 44
6 45
6 46
6 50
6 53
7 8
7 9
7 13
7 14
7 16
7 17
7 18
7 19
7 20
7 26
7 27
7 28
7 29
7 30
7 31
7 33
7 37
7 38
7 40
7 43
7 45
7 46
7 48
7 50
7 52
7 54
7 58
8 9
8 10
8 13
8 14
8 15
8 20
8 21
8 23
8 24
8 26
8 28
8 29
8 30
8 32
8 37
8 39
8 40
8 42
8 45
8 47
8 48
8 49
8 50
8 51
8 53
8 54
8 57
8 59
9 10
9 17
9 22
9 26
9 27
9 28
9 29
9 33
9 38
9 40
9 41
9 42
9 43
9 47
9 48
9 49
9 50
9 51
9 53
9 54
9 56
9 58
9 59
10 11
10 14
10 15
10 17
10 29
10 32
10 35
10 36
10 41
10 42
10 44
10 47
10 49
10 55
10 58
10 59
11 13
11 15
11 20
11 24
11 29
11 33
11 37
11 39
11 42
11 44
11 52
11 53
11 55
12 13
12 21
12 25
12 33
12 34
12 35
12 36
12 42
12 44
12 45
12 49
12 50
12 51
12 57
13 15
13 20
13 21
13 23
13 24
13 32
13 33
13 39
13 41
13 42
13 43
13 44
13 45
13 47
13 48
13 50
13 58
13 59
14 16
14 17
14 19
14 21
14 22
14 25
14 27
14 31
14 35
14 36
14 37
14 38
14 41
14 43
14 45
14 47
14 48
14 49
14 51
14 53
14 54
14 57
14 58
15 17
15 19
15 22
15 26
15 27
15 28
15 33
15 36
15 42
15 43
15 49
15 52
15 55
15 57
16 18
16 21
16 23
16 25
16 27
16 29
16 32
16 34
16 35
16 41
16 42
16 44
16 45
16 46
16 49
16 51
16 56
16 57
16 58
16 59
17 19
17 20
17 21
17 30
17 33
17 36
17 39
17 41
17 42
17 43
17 48
17 50
17 53
17 54
17 58
17 59
18 21
18 22
18 23
18 24
18 25
18 29
18 30
18 31
18 33
18 35
18 36
18 40
18 41
18 46
18 47
18 50
18 51
18 52
18 54
18 59
19 20
19 22
19 23
19 27
19 36
19 38
19 44
19 46
19 49
19 53
19 55
19 57
20 22
20 24
20 27
20 34
20 39
20 40
20 41
20 44
20 48
20 49
20 52
20 55
20 57
21 23
21 31
21 32
21 34
21 35
21 36
21 40
21 42
21 45
21 46
21 48
21 50
21 51
21 52
21 55
21 56
21 57
21 58
22 24
22 29
22 31
22 35
22 36
22 38
22 39
22 41
22 42
22 43
22 49
22 50
22 54
22 55
22 56
22 59
23 24
23 29
23 30
23 32
23 33
23 34
23 36
23 39
23 41
23 42
23 45
23 48
23 51
23 53
23 54
23 58
24 25
24 27
24 36
24 39
24 40
24 45
24 46
24 47
24 48
24 49
24 50
24 51
24 52
24 53
24 56
24 57
24 58
25 31
25 32
25 34
25 35
25 38
25 39
25 47
25 49
25 52
25 53
25 54
25 55
26 31
26 34
26 35
26 38
26 39
26 42
26 47
26 51
26 52
26 55
26 57
26 58
27 31
27 32
27 34
27 35
27 37
27 40
27 46
27 47
27 48
27 49
27 52
27 53
27 55
27 58
28 29
28 34
28 35
28 36
28 39
28 43
28 51
28 52
28 53
28 55
28 57
28 58
29 36
29 38
29 41
29 46
29 47
29 50
29 51
29 58
30 31
30 32
30 35
30 38
30 41
30 44
30 45
30 46
30 47
30 50
30 54
30 57
30 58
30 59
31 36
31 41
31 42
31 48
31 51
31 54
31 58
31 59
32 33
32 34
32 36
32 37
32 38
32 39
32 41
32 42
32 44
32 45
32 51
32 52
32 56
33 36
33 37
33 39
33 42
33 43
33 46
33 53
33 54
33 56
34 35
34 36
34 40
34 45
34 50
34 52
34 53
34 58
34 59
35 36
35 39
35 43
35 46
35 47
36 39
36 40
36 44
36 45
36 46
36 47
36 51
36 52
36 53
36 54
36 55
36 57
36 58
37 39
37 40
37 41
37 49
37 55
37 57
37 59
38 42
38 47
38 52
38 58
38 59
39 40
39 42
39 43
39 45
39 48
39 49
39 51
39 53
39 57
39 59
40 44
40 48
40 49
40 52
40 53
40 56
40 58
40 59
41 45
41 47
41 48
41 49
41 53
41 59
42 45
42 49
42 50
42 52
42 55
42 56
43 46
43 47
43 48
43 52
43 56
43 57
43 59
44 53
44 54
44 57
44 59
45 46
45 48
45 49
45 53
45 55
45 57
46 55
46 57
47 48
47 51
47 55
47 56
47 59
48 49
48 56
49 54
49 55
49 58
49 59
50 58
51 55
51 58
52 55
52 59
53 57
53 58
54 56
55 58
56 59
58 59
24 47 37 16 25 17
2 9 54 42 46 48
20 49 31 23 56 1
57 38 51 4 11 18
8 26 33 22 43 59
7 6 32 53 3 19
39 55 58 36 35 27
40 52 13 34 21 45
29 28 44 10 15 30
14 50 0 41 5 12
